&CONTROL
 calculation = 'relax'
 prefix      = 'NiFe(CN)6Na2'
 outdir      = './TMP'
 pseudo_dir  = '/home/vol07/scarf1097/ESPRESSO/pslibrary/pbesol/GIPAW_RECON'
 verbosity   = 'high'
/

&SYSTEM
 ntyp      = 5
 nat       = 16
 ibrav     = 2
 celldm(1) = 19.100
 ecutwfc   = 50
 ecutrho   = 500
 nspin     = 2
 ! nbnd      = 200
 tot_magnetization = 2.
 starting_magnetization(2) = 2.
 nr1 = 100, nr2 = 100, nr3 = 100
 nr1s = 100, nr2s = 100, nr3s = 100
/

&ELECTRONS
 startingwfc = 'atomic'
 electron_maxstep = 1000
/

&IONS
/

ATOMIC_SPECIES
 Fe 56.000 Fe.pbesol-spn-rrkjus_gipaw.1.0.0.UPF
 Ni 22.900 Ni.pbesol-spn-rrkjus_gipaw.1.0.0.UPF
  N 12.000  N.pbesol-n-rrkjus_gipaw.1.0.0.UPF
  C  8.000  C.pbesol-n-rrkjus_gipaw.1.0.0.UPF
 Na 22.900 Na.pbesol-spn-rrkjus_gipaw.1.0.0.UPF

K_POINTS automatic
2 2 2 1 1 1 

ATOMIC_POSITIONS crystal
Ni 0.00000000 0.00000000 0.00000000
Fe 0.50000000 0.50000000 0.50000000
 C 0.69239882 0.30760118 0.30760118
 C 0.30760118 0.69239882 0.30760118
 C 0.30760118 0.30760118 0.69239882
 C 0.69239882 0.69239882 0.30760118 
 C 0.69239882 0.30760118 0.69239882
 C 0.30760118 0.69239882 0.69239882
 N 0.80760118 0.19239882 0.19239882
 N 0.19239882 0.80760118 0.19239882
 N 0.19239882 0.19239882 0.80760118
 N 0.19239882 0.80760118 0.80760118
 N 0.80760118 0.19239882 0.80760118
 N 0.80760118 0.80760118 0.19239882
 Na 0.2500000 0.25000000 0.25000000
 Na 0.7500000 0.75000000 0.75000000
