 &CONTROL
   calculation   =   "relax",
   restart_mode  = 'from_scratch',
   outdir        = './TMP',
   pseudo_dir    = './pseudopotentials',
   etot_conv_thr = 1.0E-5,
   forc_conv_thr = 1.0D-4,
 /

 &SYSTEM
   ibrav        = 0
   A            = 4.080681176000001
   nat          =  2
   ntyp         =  1
   ecutwfc      =  60.0
   ecutrho      =  600.0
   nbnd         =  9
   occupations  =  'smearing'
   smearing     =  'mv'
   degauss      =  0.005
   nr1 = 66, nr2 = 66, nr3 = 66
   nr1s = 66, nr2s = 66, nr3s = 66
 /

 &ELECTRONS
   conv_thr     =  1.0d-7  ,
 /

 &IONS
 /

 &CELL
   cell_dynamics = 'bfgs' ,
   press         = 0.00 ,
 /

CELL_PARAMETERS alat
 0.58012956  0.00000000  0.81452422
-0.29006459  0.50240689  0.81452422
-0.29006459 -0.50240689  0.81452422

ATOMIC_SPECIES
As   74.90000  As.pz-bhs.UPF

ATOMIC_POSITIONS crystal
As    0.290010       0.290010       0.290010
As   -0.290010      -0.290010      -0.290010

K_POINTS automatic
  4 4 4   1 1 1
