&DOS
   prefix      = 'zno'
   outdir      = './TMP'
   bz_sum      = 'smearing'
   ngauss      = -1
   degauss     = 0.0075
   fildos      = 'ZnO.dos'
/
