&BANDS
   prefix      = 'zno'
   outdir      = './TMP'
   filband     = 'ZnO.bands'
/
