&CONTROL
   calculation      = 'scf'
   title            = 'IrO2 Unit Cell'
   verbosity        = 'high'
   outdir           = 'tmp'
   prefix           = 'iro2'
   pseudo_dir       = '/work4/dls/shared/pslibrary_pbe'
/
&SYSTEM
   ecutwfc          = 60. 
   starting_magnetization(1) = 0.0
   starting_magnetization(2) = 0.0
   nspin            = 2
   ntyp             = 2
   nat              = 6
   ibrav            = 6
   celldm(1)        = 8.5888
   celldm(3)        = 0.7018701870187019
   occupations      = 'smearing'
   smearing         = 'mp'
   degauss          = 0.005
/
&ELECTRONS
   electron_maxstep = 100
   conv_thr         = 1.D-7 
/

ATOMIC_SPECIES
 O   15.999 O.pbe-nl-rrkjus_gipaw.UPF 
Ir  192.217 Ir.pbe-n-rrkjus_gipaw.UPF 

K_POINTS automatic
2 2 2 0 0 0          !!! This must be converged

ATOMIC_POSITIONS crystal
Ir 0.0000 0.0000 0.0000
Ir 0.5000 0.5000 0.5000
 O 0.1916 0.8084 0.5000
 O 0.3084 0.3084 0.0000
 O 0.6916 0.6916 0.0000
 O 0.8084 0.1916 0.5000
