 &control
    calculation   = 'scf'
    restart_mode  = 'from_scratch'
    pseudo_dir    = './'
    tprnfor       = .true.
    prefix        = 'C60_GGA'
    outdir        = './TMP'
 /

 &system
    ibrav         = 8
    celldm(1)     = 40.
    celldm(2)     = 1.d0
    celldm(3)     = 1.d0
    nat           = 60
    ntyp          = 1
    ecutwfc       = 30.0
    ecutrho       = 300.0
!    nosym         = .true.
!    nbnd          = 160
 /
 &electrons
    diagonalization  = 'cg'
    diago_cg_maxiter = 100
    conv_thr         = 1.0d-5
    mixing_beta      = 0.5
 /

ATOMIC_SPECIES
 C   12.017 C.pbesol-n-rrkjus_gipaw.UPF 

ATOMIC_POSITIONS (angstrom)
C       -3.240935421  -1.424368991   0.124348799
C       -3.252834044  -0.824452304  -1.134722352
C       -3.256337699   0.620144950  -1.249024762
C       -2.430077060   0.981629338  -2.383282950
C       -1.626303835   2.120040557  -2.325892049
C       -0.276971749   2.081640269  -2.852955861
C        0.565792145   2.879159312  -1.984808608
C        1.871803670   2.471376844  -1.713967418
C        2.400248831   2.579034174  -0.368921817
C        3.240976865   1.424363345  -0.124306464
C        3.252869913   0.824459510   1.134744712
C        3.256369495  -0.620144589   1.249066060
C        2.430116263  -0.981623238   2.383307421
C        1.626324914  -2.120041999   2.325927687
C        0.277002746  -2.081646998   2.852983318
C       -0.565734625  -2.879158228   1.984854007
C       -1.871790466  -2.471373539   1.713985893
C       -2.400212568  -2.579033553   0.368959024
C       -3.232072729  -0.603076054   1.318175331
C       -2.385897973  -1.250134850   2.300644186
C       -1.574773252  -0.482570247   3.136145519
C       -0.217837839  -0.906270254   3.417635125
C        0.617273661   0.276527412   3.477233641
C        1.915927860   0.239587515   2.969984405
C        2.424432474   1.355781449   2.198324772
C        1.615187652   2.467095984   1.962877385
C        1.602871033   3.090392776   0.654736048
C        0.245972475   3.514067627   0.373322773
C       -0.262673865   3.410467816  -0.921231427
C       -1.617438458   2.941307061  -1.132017998
C       -2.412700568   2.593360689  -0.040336433
C       -3.247798092   1.410600986  -0.099976745
C       -3.235432186   0.787280044   1.208182863
C       -2.392724296   1.584813179   2.076265190
C       -1.578226698   0.962004403   3.021820368
C       -0.223507168   1.431171880   3.232602888
C        0.265903567   2.505468641   2.489935684
C       -0.580329431   3.152558093   1.507532635
C       -1.884207421   2.701019402   1.304666776
C       -2.424393934  -1.355793388  -2.198293917
C       -1.915911091  -0.239586288  -2.969947147
C       -0.617226686  -0.276527659  -3.477201975
C        0.217871707   0.906277458  -3.417594674
C        1.574778411   0.482559717  -3.136124995
C        2.385955695   1.250144842  -2.300584838
C        3.232105732   0.603083245  -1.318155654
C        3.235474796  -0.787284736  -1.208137373
C        3.247836067  -1.410601251   0.100000232
C        2.412720056  -2.593370785   0.040376698
C        1.617488701  -2.941298003   1.132042249
C        0.262685211  -3.410473891   0.921243748
C       -0.245918933  -3.514071385  -0.373270918
C       -1.602841079  -3.090395823  -0.654707487
C       -1.615166186  -2.467089709  -1.962849541
C       -0.265855813  -2.505473029  -2.489899519
C        0.223521957  -1.431169756  -3.232567472
C        1.578290756  -0.962014743  -3.021756706
C        2.392730665  -1.584804336  -2.076261013
C        1.884279905  -2.701003160  -1.304617708
C        0.580317941  -3.152565734  -1.507509618

K_POINTS automatic
1 1 1 0 0 0 
